c Reduced graph for GEOM30b generated by Cyril Grelier
p edge 30 81
e 1 9
e 1 11
e 1 13
e 1 19
e 1 23
e 1 27
e 1 28
e 2 8
e 2 14
e 2 17
e 2 18
e 2 21
e 2 25
e 2 26
e 3 4
e 3 5
e 3 10
e 3 16
e 3 20
e 3 30
e 4 5
e 4 7
e 4 20
e 4 25
e 4 30
e 5 16
e 5 17
e 5 20
e 5 25
e 6 9
e 6 10
e 6 11
e 6 16
e 6 27
e 7 15
e 7 22
e 7 29
e 7 30
e 8 14
e 8 18
e 8 21
e 8 26
e 9 11
e 9 27
e 9 28
e 10 16
e 10 24
e 10 27
e 11 16
e 11 27
e 12 18
e 12 19
e 12 23
e 13 23
e 13 28
e 15 30
e 16 20
e 16 24
e 16 27
e 17 18
e 17 19
e 17 20
e 17 25
e 17 26
e 18 19
e 18 25
e 18 26
e 19 23
e 19 28
e 20 25
e 21 22
e 21 25
e 21 26
e 21 29
e 22 25
e 22 26
e 22 29
e 23 28
e 25 26
e 25 29
e 26 29
